help/hilbert1.dat
param n := 25;
param eps := 0.01;